results_rootrelaxation/bin012_060_027.srr.sol
solution status: optimal solution found
objective value:                                    2
_var686_                            0.176470588235295 	(obj:0)
_var698_                            0.274509803921569 	(obj:0)
_var699_                            0.235294117647058 	(obj:0)
_var704_                           0.0784313725490198 	(obj:0)
_var705_                            0.450980392156863 	(obj:0)
_var708_                             0.11764705882353 	(obj:0)
_var723_                            0.254901960784314 	(obj:0)
_var729_                            0.274509803921569 	(obj:0)
_var751_                            0.196078431372549 	(obj:0)
_var755_                            0.254901960784313 	(obj:0)
_var757_                            0.215686274509803 	(obj:2)
_var759_                            0.117647058823529 	(obj:0)
_var764_                            0.215686274509804 	(obj:0)
_var771_                           0.0196078431372553 	(obj:0)
_var774_                            0.137254901960783 	(obj:0)
_var778_                             0.11764705882353 	(obj:0)
_var780_                            0.254901960784314 	(obj:0)
_var785_                            0.549019607843139 	(obj:0)
_var786_                            0.196078431372549 	(obj:0)
_var787_                            0.176470588235295 	(obj:1)
_var793_                            0.176470588235294 	(obj:0)
_var794_                            0.235294117647058 	(obj:0)
_var800_                            0.254901960784314 	(obj:0)
_var802_                            0.352941176470588 	(obj:0)
_var804_                            0.235294117647058 	(obj:0)
_var812_                            0.470588235294117 	(obj:1)
_var814_                            0.235294117647058 	(obj:0)
_var820_                           0.0980392156862751 	(obj:0)
_var821_                            0.333333333333332 	(obj:0)
_var823_                            0.294117647058825 	(obj:1)
_var828_                            0.215686274509803 	(obj:0)
_var830_                           0.0588235294117653 	(obj:0)
_var831_                             0.07843137254902 	(obj:1)
_var836_                           0.0784313725490203 	(obj:0)
_var838_                            0.156862745098039 	(obj:0)
_var843_                            0.254901960784313 	(obj:0)
_var844_                            0.215686274509803 	(obj:0)
_var846_                            0.176470588235296 	(obj:0)
_var847_                            0.156862745098039 	(obj:0)
_var848_                           0.0784313725490198 	(obj:1)
_var849_                           0.0784313725490186 	(obj:0)
_var850_                             0.23529411764706 	(obj:0)
_var851_                           0.0196078431372534 	(obj:0)
_var853_                            0.196078431372549 	(obj:1)
_var854_                           0.0392156862745103 	(obj:0)
_var868_                           0.0784313725490198 	(obj:0)
_var869_                            0.235294117647059 	(obj:1)
_var871_                             0.23529411764706 	(obj:0)
_var873_                            0.117647058823529 	(obj:0)
_var874_                            0.215686274509804 	(obj:0)
_var877_                           0.0196078431372555 	(obj:2)
_var879_                           0.0980392156862742 	(obj:0)
_var882_                           0.0392156862745098 	(obj:0)
_var883_                            0.137254901960784 	(obj:0)
_var886_                            0.156862745098039 	(obj:0)
_var887_                            0.137254901960783 	(obj:0)
_var890_                           0.0784313725490202 	(obj:0)
_var891_                           0.0392156862745103 	(obj:0)
_var894_                            0.117647058823531 	(obj:0)
_var896_                           0.0392156862745095 	(obj:0)
_var897_                            0.215686274509804 	(obj:0)
