results_rootrelaxation/bin012_060_027.srr.log
SCIP version 8.0.3.5 [precision: 8 byte] [memory: block] [mode: optimized] [LP solver: Soplex 6.0.1.3] [GitHash: 438792519e]
Copyright (c) 2002-2023 Zuse Institute Berlin (ZIB)

External libraries: 
  Readline 8.1         GNU library for command line editing (gnu.org/s/readline)
  Soplex 6.0.1.3       Linear Programming Solver developed at Zuse Institute Berlin (soplex.zib.de) [GitHash: 713be0fe]
  CppAD 20180000.0     Algorithmic Differentiation of C++ algorithms developed by B. Bell (github.com/coin-or/CppAD)
  ZLIB 1.2.11          General purpose compression library by J. Gailly and M. Adler (zlib.net)
  bliss 0.77           Computing Graph Automorphism Groups by T. Junttila and P. Kaski (www.tcs.hut.fi/Software/bliss/)

user parameter file <scip.set> not found - using default parameters

srr/relaxation = TRUE

read problem <instances/bin012_060_027.srr>
============

Original problem: 
original problem has 0 variables (0 bin, 0 int, 0 impl, 0 cont) and 77 constraints

presolving:
presolving (1 rounds: 1 fast, 1 medium, 1 exhaustive):
 0 deleted vars, 0 deleted constraints, 0 added constraints, 0 tightened bounds, 0 added holes, 0 changed sides, 0 changed coefficients
 0 implications, 0 cliques
presolved problem has 0 variables (0 bin, 0 int, 0 impl, 0 cont) and 77 constraints
     77 constraints of type <linear>
Presolving Time: 0.00

 time | node  | left  |LP iter|LP it/n|mem/heur|mdpt |vars |cons |rows |cuts |sepa|confs|strbr|  dualbound   | primalbound  |  gap   | compl. 
  0.0s|     1 |     0 |     1 |     - |   710k |   0 |   1 |  77 |  77 |   0 |  0 |   0 |   0 |      --      |      --      |    Inf | unknown
r 0.1s|     1 |     0 |   749 |     - |simplero|   0 | 685 |  77 |  77 |   0 |  0 |   0 |   0 |      --      | 2.054338e+01 |    Inf | unknown
r 0.1s|     1 |     0 |   802 |     - |simplero|   0 | 696 |  77 |  77 |   0 |  0 |   0 |   0 |      --      | 1.914819e+01 |    Inf | unknown
r 0.1s|     1 |     0 |   867 |     - |simplero|   0 | 707 |  77 |  77 |   0 |  0 |   0 |   0 |      --      | 1.601536e+01 |    Inf | unknown
r 0.1s|     1 |     0 |   947 |     - |simplero|   0 | 718 |  77 |  77 |   0 |  0 |   0 |   0 |      --      | 1.248211e+01 |    Inf | unknown
r 0.1s|     1 |     0 |  1010 |     - |simplero|   0 | 729 |  77 |  77 |   0 |  0 |   0 |   0 |      --      | 1.101966e+01 |    Inf | unknown
r 0.1s|     1 |     0 |  1097 |     - |simplero|   0 | 740 |  77 |  77 |   0 |  0 |   0 |   0 |      --      | 7.887947e+00 |    Inf | unknown
r 0.1s|     1 |     0 |  1165 |     - |simplero|   0 | 751 |  77 |  77 |   0 |  0 |   0 |   0 |      --      | 6.813037e+00 |    Inf | unknown
r 0.1s|     1 |     0 |  1183 |     - |simplero|   0 | 762 |  77 |  77 |   0 |  0 |   0 |   0 |      --      | 6.205639e+00 |    Inf | unknown
r 0.1s|     1 |     0 |  1192 |     - |simplero|   0 | 762 |  77 |  77 |   0 |  0 |   0 |   0 |      --      | 6.172221e+00 |    Inf | unknown
r 0.1s|     1 |     0 |  1198 |     - |simplero|   0 | 762 |  77 |  77 |   0 |  0 |   0 |   0 |      --      | 6.147821e+00 |    Inf | unknown
r 0.1s|     1 |     0 |  1233 |     - |simplero|   0 | 773 |  77 |  77 |   0 |  0 |   0 |   0 |      --      | 5.524215e+00 |    Inf | unknown
r 0.1s|     1 |     0 |  1237 |     - |simplero|   0 | 773 |  77 |  77 |   0 |  0 |   0 |   0 |      --      | 5.506583e+00 |    Inf | unknown
r 0.1s|     1 |     0 |  1240 |     - |simplero|   0 | 773 |  77 |  77 |   0 |  0 |   0 |   0 |      --      | 5.500187e+00 |    Inf | unknown
r 0.1s|     1 |     0 |  1256 |     - |simplero|   0 | 784 |  77 |  77 |   0 |  0 |   0 |   0 |      --      | 5.234337e+00 |    Inf | unknown
 time | node  | left  |LP iter|LP it/n|mem/heur|mdpt |vars |cons |rows |cuts |sepa|confs|strbr|  dualbound   | primalbound  |  gap   | compl. 
r 0.1s|     1 |     0 |  1280 |     - |simplero|   0 | 784 |  77 |  77 |   0 |  0 |   0 |   0 |      --      | 5.020006e+00 |    Inf | unknown
r 0.1s|     1 |     0 |  1289 |     - |simplero|   0 | 784 |  77 |  77 |   0 |  0 |   0 |   0 |      --      | 4.965804e+00 |    Inf | unknown
r 0.1s|     1 |     0 |  1291 |     - |simplero|   0 | 784 |  77 |  77 |   0 |  0 |   0 |   0 |      --      | 4.964178e+00 |    Inf | unknown
r 0.1s|     1 |     0 |  1336 |     - |simplero|   0 | 795 |  77 |  77 |   0 |  0 |   0 |   0 |      --      | 4.127456e+00 |    Inf | unknown
r 0.1s|     1 |     0 |  1344 |     - |simplero|   0 | 795 |  77 |  77 |   0 |  0 |   0 |   0 |      --      | 4.084843e+00 |    Inf | unknown
r 0.1s|     1 |     0 |  1349 |     - |simplero|   0 | 795 |  77 |  77 |   0 |  0 |   0 |   0 |      --      | 4.080123e+00 |    Inf | unknown
r 0.1s|     1 |     0 |  1375 |     - |simplero|   0 | 806 |  77 |  77 |   0 |  0 |   0 |   0 |      --      | 3.564730e+00 |    Inf | unknown
r 0.1s|     1 |     0 |  1382 |     - |simplero|   0 | 806 |  77 |  77 |   0 |  0 |   0 |   0 |      --      | 3.540225e+00 |    Inf | unknown
r 0.1s|     1 |     0 |  1417 |     - |simplero|   0 | 817 |  77 |  77 |   0 |  0 |   0 |   0 |      --      | 3.307036e+00 |    Inf | unknown
r 0.1s|     1 |     0 |  1418 |     - |simplero|   0 | 817 |  77 |  77 |   0 |  0 |   0 |   0 |      --      | 3.306934e+00 |    Inf | unknown
r 0.1s|     1 |     0 |  1465 |     - |simplero|   0 | 828 |  77 |  77 |   0 |  0 |   0 |   0 |      --      | 2.900000e+00 |    Inf | unknown
r 0.1s|     1 |     0 |  1494 |     - |simplero|   0 | 839 |  77 |  77 |   0 |  0 |   0 |   0 |      --      | 2.545709e+00 |    Inf | unknown
r 0.1s|     1 |     0 |  1502 |     - |simplero|   0 | 839 |  77 |  77 |   0 |  0 |   0 |   0 |      --      | 2.522352e+00 |    Inf | unknown
r 0.1s|     1 |     0 |  1526 |     - |simplero|   0 | 850 |  77 |  77 |   0 |  0 |   0 |   0 |      --      | 2.237124e+00 |    Inf | unknown
r 0.1s|     1 |     0 |  1541 |     - |simplero|   0 | 861 |  77 |  77 |   0 |  0 |   0 |   0 |      --      | 2.179628e+00 |    Inf | unknown
 time | node  | left  |LP iter|LP it/n|mem/heur|mdpt |vars |cons |rows |cuts |sepa|confs|strbr|  dualbound   | primalbound  |  gap   | compl. 
r 0.1s|     1 |     0 |  1562 |     - |simplero|   0 | 872 |  77 |  77 |   0 |  0 |   0 |   0 |      --      | 2.134062e+00 |    Inf | unknown
r 0.1s|     1 |     0 |  1583 |     - |simplero|   0 | 882 |  77 |  77 |   0 |  0 |   0 |   0 |      --      | 2.099526e+00 |    Inf | unknown
r 0.1s|     1 |     0 |  1604 |     - |simplero|   0 | 891 |  77 |  77 |   0 |  0 |   0 |   0 |      --      | 2.048387e+00 |    Inf | unknown
r 0.1s|     1 |     0 |  1609 |     - |simplero|   0 | 891 |  77 |  77 |   0 |  0 |   0 |   0 |      --      | 2.044444e+00 |    Inf | unknown
  0.1s|     1 |     0 |  1610 |     - |  4187k |   0 | 891 |  77 |  77 |   0 |  0 |   0 |   0 |      --      | 2.044444e+00 |    Inf | unknown
r 0.1s|     1 |     0 |  1610 |     - |simplero|   0 | 891 |  77 |  77 |   0 |  0 |   0 |   0 |      --      | 2.044316e+00 |    Inf | unknown
r 0.1s|     1 |     0 |  1618 |     - |simplero|   0 | 898 |  77 |  77 |   0 |  0 |   0 |   0 |      --      | 2.000000e+00 |    Inf | unknown
  0.1s|     1 |     0 |  1618 |     - |  4195k |   0 | 898 |  77 |  77 |   0 |  0 |   0 |   0 | 2.000000e+00 | 2.000000e+00 |   0.00%| unknown
  0.1s|     1 |     0 |  1618 |     - |  4195k |   0 | 898 |  77 |  77 |   0 |  0 |   0 |   0 | 2.000000e+00 | 2.000000e+00 |   0.00%| unknown

SCIP Status        : problem is solved [optimal solution found]
Solving Time (sec) : 0.12
Solving Nodes      : 1
Primal Bound       : +2.00000000000000e+00 (35 solutions)
Dual Bound         : +2.00000000000000e+00
Gap                : 0.00 %

written transformed problem to file <results_rootrelaxation/bin012_060_027.srr.lp>
written transformed problem to file <results_rootrelaxation/bin012_060_027.srr.cip>


SCIP version 8.0.3.5 [precision: 8 byte] [memory: block] [mode: optimized] [LP solver: Soplex 6.0.1.3] [GitHash: 438792519e]
Copyright (c) 2002-2023 Zuse Institute Berlin (ZIB)

External libraries: 
  Readline 8.1         GNU library for command line editing (gnu.org/s/readline)
  Soplex 6.0.1.3       Linear Programming Solver developed at Zuse Institute Berlin (soplex.zib.de) [GitHash: 713be0fe]
  CppAD 20180000.0     Algorithmic Differentiation of C++ algorithms developed by B. Bell (github.com/coin-or/CppAD)
  ZLIB 1.2.11          General purpose compression library by J. Gailly and M. Adler (zlib.net)
  bliss 0.77           Computing Graph Automorphism Groups by T. Junttila and P. Kaski (www.tcs.hut.fi/Software/bliss/)

user parameter file <scip.set> not found - using default parameters

srr/relaxation = TRUE

read problem <instances/bin012_060_027.srr>
============

Original problem: 
original problem has 0 variables (0 bin, 0 int, 0 impl, 0 cont) and 77 constraints

presolving:
presolving (1 rounds: 1 fast, 1 medium, 1 exhaustive):
 0 deleted vars, 0 deleted constraints, 0 added constraints, 0 tightened bounds, 0 added holes, 0 changed sides, 0 changed coefficients
 0 implications, 0 cliques
presolved problem has 0 variables (0 bin, 0 int, 0 impl, 0 cont) and 77 constraints
     77 constraints of type <linear>
Presolving Time: 0.00

 time | node  | left  |LP iter|LP it/n|mem/heur|mdpt |vars |cons |rows |cuts |sepa|confs|strbr|  dualbound   | primalbound  |  gap   | compl. 
  0.0s|     1 |     0 |     1 |     - |   710k |   0 |   1 |  77 |  77 |   0 |  0 |   0 |   0 |      --      |      --      |    Inf | unknown
r 0.0s|     1 |     0 |   749 |     - |simplero|   0 | 685 |  77 |  77 |   0 |  0 |   0 |   0 |      --      | 2.054338e+01 |    Inf | unknown
r 0.0s|     1 |     0 |   802 |     - |simplero|   0 | 696 |  77 |  77 |   0 |  0 |   0 |   0 |      --      | 1.914819e+01 |    Inf | unknown
r 0.1s|     1 |     0 |   867 |     - |simplero|   0 | 707 |  77 |  77 |   0 |  0 |   0 |   0 |      --      | 1.601536e+01 |    Inf | unknown
r 0.1s|     1 |     0 |   947 |     - |simplero|   0 | 718 |  77 |  77 |   0 |  0 |   0 |   0 |      --      | 1.248211e+01 |    Inf | unknown
r 0.1s|     1 |     0 |  1010 |     - |simplero|   0 | 729 |  77 |  77 |   0 |  0 |   0 |   0 |      --      | 1.101966e+01 |    Inf | unknown
r 0.1s|     1 |     0 |  1097 |     - |simplero|   0 | 740 |  77 |  77 |   0 |  0 |   0 |   0 |      --      | 7.887947e+00 |    Inf | unknown
r 0.1s|     1 |     0 |  1165 |     - |simplero|   0 | 751 |  77 |  77 |   0 |  0 |   0 |   0 |      --      | 6.813037e+00 |    Inf | unknown
r 0.1s|     1 |     0 |  1183 |     - |simplero|   0 | 762 |  77 |  77 |   0 |  0 |   0 |   0 |      --      | 6.205639e+00 |    Inf | unknown
r 0.1s|     1 |     0 |  1192 |     - |simplero|   0 | 762 |  77 |  77 |   0 |  0 |   0 |   0 |      --      | 6.172221e+00 |    Inf | unknown
r 0.1s|     1 |     0 |  1198 |     - |simplero|   0 | 762 |  77 |  77 |   0 |  0 |   0 |   0 |      --      | 6.147821e+00 |    Inf | unknown
r 0.1s|     1 |     0 |  1233 |     - |simplero|   0 | 773 |  77 |  77 |   0 |  0 |   0 |   0 |      --      | 5.524215e+00 |    Inf | unknown
r 0.1s|     1 |     0 |  1237 |     - |simplero|   0 | 773 |  77 |  77 |   0 |  0 |   0 |   0 |      --      | 5.506583e+00 |    Inf | unknown
r 0.1s|     1 |     0 |  1240 |     - |simplero|   0 | 773 |  77 |  77 |   0 |  0 |   0 |   0 |      --      | 5.500187e+00 |    Inf | unknown
r 0.1s|     1 |     0 |  1256 |     - |simplero|   0 | 784 |  77 |  77 |   0 |  0 |   0 |   0 |      --      | 5.234337e+00 |    Inf | unknown
 time | node  | left  |LP iter|LP it/n|mem/heur|mdpt |vars |cons |rows |cuts |sepa|confs|strbr|  dualbound   | primalbound  |  gap   | compl. 
r 0.1s|     1 |     0 |  1280 |     - |simplero|   0 | 784 |  77 |  77 |   0 |  0 |   0 |   0 |      --      | 5.020006e+00 |    Inf | unknown
r 0.1s|     1 |     0 |  1289 |     - |simplero|   0 | 784 |  77 |  77 |   0 |  0 |   0 |   0 |      --      | 4.965804e+00 |    Inf | unknown
r 0.1s|     1 |     0 |  1291 |     - |simplero|   0 | 784 |  77 |  77 |   0 |  0 |   0 |   0 |      --      | 4.964178e+00 |    Inf | unknown
r 0.1s|     1 |     0 |  1336 |     - |simplero|   0 | 795 |  77 |  77 |   0 |  0 |   0 |   0 |      --      | 4.127456e+00 |    Inf | unknown
r 0.1s|     1 |     0 |  1344 |     - |simplero|   0 | 795 |  77 |  77 |   0 |  0 |   0 |   0 |      --      | 4.084843e+00 |    Inf | unknown
r 0.1s|     1 |     0 |  1349 |     - |simplero|   0 | 795 |  77 |  77 |   0 |  0 |   0 |   0 |      --      | 4.080123e+00 |    Inf | unknown
r 0.1s|     1 |     0 |  1375 |     - |simplero|   0 | 806 |  77 |  77 |   0 |  0 |   0 |   0 |      --      | 3.564730e+00 |    Inf | unknown
r 0.1s|     1 |     0 |  1382 |     - |simplero|   0 | 806 |  77 |  77 |   0 |  0 |   0 |   0 |      --      | 3.540225e+00 |    Inf | unknown
r 0.1s|     1 |     0 |  1417 |     - |simplero|   0 | 817 |  77 |  77 |   0 |  0 |   0 |   0 |      --      | 3.307036e+00 |    Inf | unknown
r 0.1s|     1 |     0 |  1418 |     - |simplero|   0 | 817 |  77 |  77 |   0 |  0 |   0 |   0 |      --      | 3.306934e+00 |    Inf | unknown
r 0.1s|     1 |     0 |  1465 |     - |simplero|   0 | 828 |  77 |  77 |   0 |  0 |   0 |   0 |      --      | 2.900000e+00 |    Inf | unknown
r 0.1s|     1 |     0 |  1494 |     - |simplero|   0 | 839 |  77 |  77 |   0 |  0 |   0 |   0 |      --      | 2.545709e+00 |    Inf | unknown
r 0.1s|     1 |     0 |  1502 |     - |simplero|   0 | 839 |  77 |  77 |   0 |  0 |   0 |   0 |      --      | 2.522352e+00 |    Inf | unknown
r 0.1s|     1 |     0 |  1526 |     - |simplero|   0 | 850 |  77 |  77 |   0 |  0 |   0 |   0 |      --      | 2.237124e+00 |    Inf | unknown
r 0.1s|     1 |     0 |  1541 |     - |simplero|   0 | 861 |  77 |  77 |   0 |  0 |   0 |   0 |      --      | 2.179628e+00 |    Inf | unknown
 time | node  | left  |LP iter|LP it/n|mem/heur|mdpt |vars |cons |rows |cuts |sepa|confs|strbr|  dualbound   | primalbound  |  gap   | compl. 
r 0.1s|     1 |     0 |  1562 |     - |simplero|   0 | 872 |  77 |  77 |   0 |  0 |   0 |   0 |      --      | 2.134062e+00 |    Inf | unknown
r 0.1s|     1 |     0 |  1583 |     - |simplero|   0 | 882 |  77 |  77 |   0 |  0 |   0 |   0 |      --      | 2.099526e+00 |    Inf | unknown
r 0.1s|     1 |     0 |  1604 |     - |simplero|   0 | 891 |  77 |  77 |   0 |  0 |   0 |   0 |      --      | 2.048387e+00 |    Inf | unknown
r 0.1s|     1 |     0 |  1609 |     - |simplero|   0 | 891 |  77 |  77 |   0 |  0 |   0 |   0 |      --      | 2.044444e+00 |    Inf | unknown
  0.1s|     1 |     0 |  1610 |     - |  4187k |   0 | 891 |  77 |  77 |   0 |  0 |   0 |   0 |      --      | 2.044444e+00 |    Inf | unknown
r 0.1s|     1 |     0 |  1610 |     - |simplero|   0 | 891 |  77 |  77 |   0 |  0 |   0 |   0 |      --      | 2.044316e+00 |    Inf | unknown
r 0.1s|     1 |     0 |  1618 |     - |simplero|   0 | 898 |  77 |  77 |   0 |  0 |   0 |   0 |      --      | 2.000000e+00 |    Inf | unknown
  0.1s|     1 |     0 |  1618 |     - |  4195k |   0 | 898 |  77 |  77 |   0 |  0 |   0 |   0 | 2.000000e+00 | 2.000000e+00 |   0.00%| unknown
  0.1s|     1 |     0 |  1618 |     - |  4195k |   0 | 898 |  77 |  77 |   0 |  0 |   0 |   0 | 2.000000e+00 | 2.000000e+00 |   0.00%| unknown

SCIP Status        : problem is solved [optimal solution found]
Solving Time (sec) : 0.10
Solving Nodes      : 1
Primal Bound       : +2.00000000000000e+00 (35 solutions)
Dual Bound         : +2.00000000000000e+00
Gap                : 0.00 %

written transformed problem to file <results_rootrelaxation/bin012_060_027.srr.lp>
written transformed problem to file <results_rootrelaxation/bin012_060_027.srr.cip>

written solution information to file <results_rootrelaxation/bin012_060_027.srr.sol>



